c description: Graph pigeonhole principle formula on fast_gnp_random_graph(10,25,0.9)
c generator: CNFgen (0.9.0)
c copyright: (C) 2012-2020 Massimo Lauria <massimo.lauria@uniroma1.it>
c url: https://massimolauria.net/cnfgen
c
p cnf 219 873
1 2 3 4 5 6 7 8 9 10 11 12 13 14 15 16 17 18 19 20 21 22 23 24 25 0
26 27 28 29 30 31 32 33 34 35 36 37 38 39 40 41 42 43 44 45 46 0
47 48 49 50 51 52 53 54 55 56 57 58 59 60 61 62 63 64 65 66 67 68 0
69 70 71 72 73 74 75 76 77 78 79 80 81 82 83 84 85 86 87 88 89 0
90 91 92 93 94 95 96 97 98 99 100 101 102 103 104 105 106 107 0
108 109 110 111 112 113 114 115 116 117 118 119 120 121 122 123 124 125 126 127 128 129 0
130 131 132 133 134 135 136 137 138 139 140 141 142 143 144 145 146 147 148 149 150 151 152 0
153 154 155 156 157 158 159 160 161 162 163 164 165 166 167 168 169 170 171 172 173 0
174 175 176 177 178 179 180 181 182 183 184 185 186 187 188 189 190 191 192 193 194 195 196 0
197 198 199 200 201 202 203 204 205 206 207 208 209 210 211 212 213 214 215 216 217 218 219 0
-1 -69 0
-1 -90 0
-1 -108 0
-1 -130 0
-1 -174 0
-1 -197 0
-69 -90 0
-69 -108 0
-69 -130 0
-69 -174 0
-69 -197 0
-90 -108 0
-90 -130 0
-90 -174 0
-90 -197 0
-108 -130 0
-108 -174 0
-108 -197 0
-130 -174 0
-130 -197 0
-174 -197 0
-2 -47 0
-2 -109 0
-2 -131 0
-2 -153 0
-2 -175 0
-2 -198 0
-47 -109 0
-47 -131 0
-47 -153 0
-47 -175 0
-47 -198 0
-109 -131 0
-109 -153 0
-109 -175 0
-109 -198 0
-131 -153 0
-131 -175 0
-131 -198 0
-153 -175 0
-153 -198 0
-175 -198 0
-3 -26 0
-3 -48 0
-3 -70 0
-3 -91 0
-3 -110 0
-3 -132 0
-3 -154 0
-3 -199 0
-26 -48 0
-26 -70 0
-26 -91 0
-26 -110 0
-26 -132 0
-26 -154 0
-26 -199 0
-48 -70 0
-48 -91 0
-48 -110 0
-48 -132 0
-48 -154 0
-48 -199 0
-70 -91 0
-70 -110 0
-70 -132 0
-70 -154 0
-70 -199 0
-91 -110 0
-91 -132 0
-91 -154 0
-91 -199 0
-110 -132 0
-110 -154 0
-110 -199 0
-132 -154 0
-132 -199 0
-154 -199 0
-4 -27 0
-4 -49 0
-4 -71 0
-4 -92 0
-4 -111 0
-4 -155 0
-4 -176 0
-4 -200 0
-27 -49 0
-27 -71 0
-27 -92 0
-27 -111 0
-27 -155 0
-27 -176 0
-27 -200 0
-49 -71 0
-49 -92 0
-49 -111 0
-49 -155 0
-49 -176 0
-49 -200 0
-71 -92 0
-71 -111 0
-71 -155 0
-71 -176 0
-71 -200 0
-92 -111 0
-92 -155 0
-92 -176 0
-92 -200 0
-111 -155 0
-111 -176 0
-111 -200 0
-155 -176 0
-155 -200 0
-176 -200 0
-5 -28 0
-5 -50 0
-5 -72 0
-5 -93 0
-5 -112 0
-5 -133 0
-5 -177 0
-5 -201 0
-28 -50 0
-28 -72 0
-28 -93 0
-28 -112 0
-28 -133 0
-28 -177 0
-28 -201 0
-50 -72 0
-50 -93 0
-50 -112 0
-50 -133 0
-50 -177 0
-50 -201 0
-72 -93 0
-72 -112 0
-72 -133 0
-72 -177 0
-72 -201 0
-93 -112 0
-93 -133 0
-93 -177 0
-93 -201 0
-112 -133 0
-112 -177 0
-112 -201 0
-133 -177 0
-133 -201 0
-177 -201 0
-6 -29 0
-6 -51 0
-6 -73 0
-6 -94 0
-6 -113 0
-6 -156 0
-6 -178 0
-6 -202 0
-29 -51 0
-29 -73 0
-29 -94 0
-29 -113 0
-29 -156 0
-29 -178 0
-29 -202 0
-51 -73 0
-51 -94 0
-51 -113 0
-51 -156 0
-51 -178 0
-51 -202 0
-73 -94 0
-73 -113 0
-73 -156 0
-73 -178 0
-73 -202 0
-94 -113 0
-94 -156 0
-94 -178 0
-94 -202 0
-113 -156 0
-113 -178 0
-113 -202 0
-156 -178 0
-156 -202 0
-178 -202 0
-7 -30 0
-7 -52 0
-7 -74 0
-7 -114 0
-7 -134 0
-7 -157 0
-7 -179 0
-7 -203 0
-30 -52 0
-30 -74 0
-30 -114 0
-30 -134 0
-30 -157 0
-30 -179 0
-30 -203 0
-52 -74 0
-52 -114 0
-52 -134 0
-52 -157 0
-52 -179 0
-52 -203 0
-74 -114 0
-74 -134 0
-74 -157 0
-74 -179 0
-74 -203 0
-114 -134 0
-114 -157 0
-114 -179 0
-114 -203 0
-134 -157 0
-134 -179 0
-134 -203 0
-157 -179 0
-157 -203 0
-179 -203 0
-8 -31 0
-8 -53 0
-8 -115 0
-8 -135 0
-8 -158 0
-8 -180 0
-8 -204 0
-31 -53 0
-31 -115 0
-31 -135 0
-31 -158 0
-31 -180 0
-31 -204 0
-53 -115 0
-53 -135 0
-53 -158 0
-53 -180 0
-53 -204 0
-115 -135 0
-115 -158 0
-115 -180 0
-115 -204 0
-135 -158 0
-135 -180 0
-135 -204 0
-158 -180 0
-158 -204 0
-180 -204 0
-9 -32 0
-9 -54 0
-9 -75 0
-9 -95 0
-9 -116 0
-9 -136 0
-9 -159 0
-9 -181 0
-32 -54 0
-32 -75 0
-32 -95 0
-32 -116 0
-32 -136 0
-32 -159 0
-32 -181 0
-54 -75 0
-54 -95 0
-54 -116 0
-54 -136 0
-54 -159 0
-54 -181 0
-75 -95 0
-75 -116 0
-75 -136 0
-75 -159 0
-75 -181 0
-95 -116 0
-95 -136 0
-95 -159 0
-95 -181 0
-116 -136 0
-116 -159 0
-116 -181 0
-136 -159 0
-136 -181 0
-159 -181 0
-10 -33 0
-10 -55 0
-10 -137 0
-10 -182 0
-10 -205 0
-33 -55 0
-33 -137 0
-33 -182 0
-33 -205 0
-55 -137 0
-55 -182 0
-55 -205 0
-137 -182 0
-137 -205 0
-182 -205 0
-11 -34 0
-11 -56 0
-11 -76 0
-11 -96 0
-11 -117 0
-11 -138 0
-11 -160 0
-11 -183 0
-11 -206 0
-34 -56 0
-34 -76 0
-34 -96 0
-34 -117 0
-34 -138 0
-34 -160 0
-34 -183 0
-34 -206 0
-56 -76 0
-56 -96 0
-56 -117 0
-56 -138 0
-56 -160 0
-56 -183 0
-56 -206 0
-76 -96 0
-76 -117 0
-76 -138 0
-76 -160 0
-76 -183 0
-76 -206 0
-96 -117 0
-96 -138 0
-96 -160 0
-96 -183 0
-96 -206 0
-117 -138 0
-117 -160 0
-117 -183 0
-117 -206 0
-138 -160 0
-138 -183 0
-138 -206 0
-160 -183 0
-160 -206 0
-183 -206 0
-12 -35 0
-12 -57 0
-12 -77 0
-12 -97 0
-12 -118 0
-12 -139 0
-12 -161 0
-12 -184 0
-12 -207 0
-35 -57 0
-35 -77 0
-35 -97 0
-35 -118 0
-35 -139 0
-35 -161 0
-35 -184 0
-35 -207 0
-57 -77 0
-57 -97 0
-57 -118 0
-57 -139 0
-57 -161 0
-57 -184 0
-57 -207 0
-77 -97 0
-77 -118 0
-77 -139 0
-77 -161 0
-77 -184 0
-77 -207 0
-97 -118 0
-97 -139 0
-97 -161 0
-97 -184 0
-97 -207 0
-118 -139 0
-118 -161 0
-118 -184 0
-118 -207 0
-139 -161 0
-139 -184 0
-139 -207 0
-161 -184 0
-161 -207 0
-184 -207 0
-13 -36 0
-13 -78 0
-13 -98 0
-13 -119 0
-13 -140 0
-13 -185 0
-13 -208 0
-36 -78 0
-36 -98 0
-36 -119 0
-36 -140 0
-36 -185 0
-36 -208 0
-78 -98 0
-78 -119 0
-78 -140 0
-78 -185 0
-78 -208 0
-98 -119 0
-98 -140 0
-98 -185 0
-98 -208 0
-119 -140 0
-119 -185 0
-119 -208 0
-140 -185 0
-140 -208 0
-185 -208 0
-14 -37 0
-14 -58 0
-14 -79 0
-14 -99 0
-14 -141 0
-14 -162 0
-14 -186 0
-14 -209 0
-37 -58 0
-37 -79 0
-37 -99 0
-37 -141 0
-37 -162 0
-37 -186 0
-37 -209 0
-58 -79 0
-58 -99 0
-58 -141 0
-58 -162 0
-58 -186 0
-58 -209 0
-79 -99 0
-79 -141 0
-79 -162 0
-79 -186 0
-79 -209 0
-99 -141 0
-99 -162 0
-99 -186 0
-99 -209 0
-141 -162 0
-141 -186 0
-141 -209 0
-162 -186 0
-162 -209 0
-186 -209 0
-15 -38 0
-15 -59 0
-15 -80 0
-15 -100 0
-15 -120 0
-15 -142 0
-15 -163 0
-15 -187 0
-15 -210 0
-38 -59 0
-38 -80 0
-38 -100 0
-38 -120 0
-38 -142 0
-38 -163 0
-38 -187 0
-38 -210 0
-59 -80 0
-59 -100 0
-59 -120 0
-59 -142 0
-59 -163 0
-59 -187 0
-59 -210 0
-80 -100 0
-80 -120 0
-80 -142 0
-80 -163 0
-80 -187 0
-80 -210 0
-100 -120 0
-100 -142 0
-100 -163 0
-100 -187 0
-100 -210 0
-120 -142 0
-120 -163 0
-120 -187 0
-120 -210 0
-142 -163 0
-142 -187 0
-142 -210 0
-163 -187 0
-163 -210 0
-187 -210 0
-16 -39 0
-16 -60 0
-16 -81 0
-16 -101 0
-16 -121 0
-16 -143 0
-16 -164 0
-16 -188 0
-16 -211 0
-39 -60 0
-39 -81 0
-39 -101 0
-39 -121 0
-39 -143 0
-39 -164 0
-39 -188 0
-39 -211 0
-60 -81 0
-60 -101 0
-60 -121 0
-60 -143 0
-60 -164 0
-60 -188 0
-60 -211 0
-81 -101 0
-81 -121 0
-81 -143 0
-81 -164 0
-81 -188 0
-81 -211 0
-101 -121 0
-101 -143 0
-101 -164 0
-101 -188 0
-101 -211 0
-121 -143 0
-121 -164 0
-121 -188 0
-121 -211 0
-143 -164 0
-143 -188 0
-143 -211 0
-164 -188 0
-164 -211 0
-188 -211 0
-17 -40 0
-17 -61 0
-17 -82 0
-17 -102 0
-17 -122 0
-17 -144 0
-17 -165 0
-17 -189 0
-17 -212 0
-40 -61 0
-40 -82 0
-40 -102 0
-40 -122 0
-40 -144 0
-40 -165 0
-40 -189 0
-40 -212 0
-61 -82 0
-61 -102 0
-61 -122 0
-61 -144 0
-61 -165 0
-61 -189 0
-61 -212 0
-82 -102 0
-82 -122 0
-82 -144 0
-82 -165 0
-82 -189 0
-82 -212 0
-102 -122 0
-102 -144 0
-102 -165 0
-102 -189 0
-102 -212 0
-122 -144 0
-122 -165 0
-122 -189 0
-122 -212 0
-144 -165 0
-144 -189 0
-144 -212 0
-165 -189 0
-165 -212 0
-189 -212 0
-18 -62 0
-18 -83 0
-18 -123 0
-18 -145 0
-18 -166 0
-18 -190 0
-18 -213 0
-62 -83 0
-62 -123 0
-62 -145 0
-62 -166 0
-62 -190 0
-62 -213 0
-83 -123 0
-83 -145 0
-83 -166 0
-83 -190 0
-83 -213 0
-123 -145 0
-123 -166 0
-123 -190 0
-123 -213 0
-145 -166 0
-145 -190 0
-145 -213 0
-166 -190 0
-166 -213 0
-190 -213 0
-19 -41 0
-19 -63 0
-19 -103 0
-19 -146 0
-19 -167 0
-19 -191 0
-19 -214 0
-41 -63 0
-41 -103 0
-41 -146 0
-41 -167 0
-41 -191 0
-41 -214 0
-63 -103 0
-63 -146 0
-63 -167 0
-63 -191 0
-63 -214 0
-103 -146 0
-103 -167 0
-103 -191 0
-103 -214 0
-146 -167 0
-146 -191 0
-146 -214 0
-167 -191 0
-167 -214 0
-191 -214 0
-20 -42 0
-20 -64 0
-20 -84 0
-20 -104 0
-20 -124 0
-20 -147 0
-20 -168 0
-20 -192 0
-20 -215 0
-42 -64 0
-42 -84 0
-42 -104 0
-42 -124 0
-42 -147 0
-42 -168 0
-42 -192 0
-42 -215 0
-64 -84 0
-64 -104 0
-64 -124 0
-64 -147 0
-64 -168 0
-64 -192 0
-64 -215 0
-84 -104 0
-84 -124 0
-84 -147 0
-84 -168 0
-84 -192 0
-84 -215 0
-104 -124 0
-104 -147 0
-104 -168 0
-104 -192 0
-104 -215 0
-124 -147 0
-124 -168 0
-124 -192 0
-124 -215 0
-147 -168 0
-147 -192 0
-147 -215 0
-168 -192 0
-168 -215 0
-192 -215 0
-21 -43 0
-21 -65 0
-21 -85 0
-21 -125 0
-21 -148 0
-21 -169 0
-21 -193 0
-21 -216 0
-43 -65 0
-43 -85 0
-43 -125 0
-43 -148 0
-43 -169 0
-43 -193 0
-43 -216 0
-65 -85 0
-65 -125 0
-65 -148 0
-65 -169 0
-65 -193 0
-65 -216 0
-85 -125 0
-85 -148 0
-85 -169 0
-85 -193 0
-85 -216 0
-125 -148 0
-125 -169 0
-125 -193 0
-125 -216 0
-148 -169 0
-148 -193 0
-148 -216 0
-169 -193 0
-169 -216 0
-193 -216 0
-22 -44 0
-22 -66 0
-22 -86 0
-22 -126 0
-22 -149 0
-22 -170 0
-22 -194 0
-44 -66 0
-44 -86 0
-44 -126 0
-44 -149 0
-44 -170 0
-44 -194 0
-66 -86 0
-66 -126 0
-66 -149 0
-66 -170 0
-66 -194 0
-86 -126 0
-86 -149 0
-86 -170 0
-86 -194 0
-126 -149 0
-126 -170 0
-126 -194 0
-149 -170 0
-149 -194 0
-170 -194 0
-23 -45 0
-23 -87 0
-23 -105 0
-23 -127 0
-23 -150 0
-23 -171 0
-23 -195 0
-23 -217 0
-45 -87 0
-45 -105 0
-45 -127 0
-45 -150 0
-45 -171 0
-45 -195 0
-45 -217 0
-87 -105 0
-87 -127 0
-87 -150 0
-87 -171 0
-87 -195 0
-87 -217 0
-105 -127 0
-105 -150 0
-105 -171 0
-105 -195 0
-105 -217 0
-127 -150 0
-127 -171 0
-127 -195 0
-127 -217 0
-150 -171 0
-150 -195 0
-150 -217 0
-171 -195 0
-171 -217 0
-195 -217 0
-24 -46 0
-24 -67 0
-24 -88 0
-24 -106 0
-24 -128 0
-24 -151 0
-24 -172 0
-24 -218 0
-46 -67 0
-46 -88 0
-46 -106 0
-46 -128 0
-46 -151 0
-46 -172 0
-46 -218 0
-67 -88 0
-67 -106 0
-67 -128 0
-67 -151 0
-67 -172 0
-67 -218 0
-88 -106 0
-88 -128 0
-88 -151 0
-88 -172 0
-88 -218 0
-106 -128 0
-106 -151 0
-106 -172 0
-106 -218 0
-128 -151 0
-128 -172 0
-128 -218 0
-151 -172 0
-151 -218 0
-172 -218 0
-25 -68 0
-25 -89 0
-25 -107 0
-25 -129 0
-25 -152 0
-25 -173 0
-25 -196 0
-25 -219 0
-68 -89 0
-68 -107 0
-68 -129 0
-68 -152 0
-68 -173 0
-68 -196 0
-68 -219 0
-89 -107 0
-89 -129 0
-89 -152 0
-89 -173 0
-89 -196 0
-89 -219 0
-107 -129 0
-107 -152 0
-107 -173 0
-107 -196 0
-107 -219 0
-129 -152 0
-129 -173 0
-129 -196 0
-129 -219 0
-152 -173 0
-152 -196 0
-152 -219 0
-173 -196 0
-173 -219 0
-196 -219 0